10J3M/DAT/10J3MULX-18.dat
10 3
43.9597 6.6302
16.6075 4.0752
28.352 5.3247
23.0987 4.8061
40.7142 6.3808
26.7943 5.1763
10.2879 3.2075
49.278 7.0198
3.3915 1.8416
28.9741 5.3828
16.615