10J3M/SOL/10J3MULX-18.sol
solution status: optimal solution found
objective value:                     86.2425586235489
x#1#1                               0.519323426941014 	(obj:0)
x#1#3                               0.480676573058986 	(obj:0)
x#2#1                               0.999585406301833 	(obj:0)
x#3#1                              0.0993880992103187 	(obj:0)
x#3#3                               0.900611900789681 	(obj:0)
x#4#1                                               1 	(obj:0)
x#5#2                                               1 	(obj:0)
x#6#1                                               1 	(obj:0)
x#7#2                                               1 	(obj:0)
x#8#2                               0.580453338805589 	(obj:0)
x#8#3                               0.419546661194411 	(obj:0)
x#9#2                                0.93619169625395 	(obj:0)
x#9#3                              0.0638083037460495 	(obj:0)
x#10#3                                              1 	(obj:0)
z                                    86.2425586235489 	(obj:1)
